50
801 0 0 89 356 0 0 89 0 0 890 0 0 712 0 0 0 0 445 0 0 267 0 89 623 712 0 445 534 0 801 0 178 267 0 0 0 445 445 0 623 0 0 0 534 890 0 0 178 0 
504 87 29 56 224 232 58 56 58 261 560 203 58 448 87 116 29 87 280 261 29 168 145 56 392 448 29 280 336 116 504 145 112 168 87 261 174 280 280 145 392 203 29 29 336 560 174 145 112 203 
5154
